c CNF file corresponding to a (partial) station packing problem.
p cnf 5656 229
1 2 3 4 5 6 7 8 9 10 11 12 13 14 0
-1 -2 0
-1 -3 0
-1 -4 0
-1 -5 0
-1 -6 0
-1 -7 0
-1 -8 0
-1 -9 0
-1 -10 0
-1 -11 0
-1 -12 0
-1 -13 0
-1 -14 0
-2 -3 0
-2 -4 0
-2 -5 0
-2 -6 0
-2 -7 0
-2 -8 0
-2 -9 0
-2 -10 0
-2 -11 0
-2 -12 0
-2 -13 0
-2 -14 0
-3 -4 0
-3 -5 0
-3 -6 0
-3 -7 0
-3 -8 0
-3 -9 0
-3 -10 0
-3 -11 0
-3 -12 0
-3 -13 0
-3 -14 0
-4 -5 0
-4 -6 0
-4 -7 0
-4 -8 0
-4 -9 0
-4 -10 0
-4 -11 0
-4 -12 0
-4 -13 0
-4 -14 0
-5 -6 0
-5 -7 0
-5 -8 0
-5 -9 0
-5 -10 0
-5 -11 0
-5 -12 0
-5 -13 0
-5 -14 0
-6 -7 0
-6 -8 0
-6 -9 0
-6 -10 0
-6 -11 0
-6 -12 0
-6 -13 0
-6 -14 0
-7 -8 0
-7 -9 0
-7 -10 0
-7 -11 0
-7 -12 0
-7 -13 0
-7 -14 0
-8 -9 0
-8 -10 0
-8 -11 0
-8 -12 0
-8 -13 0
-8 -14 0
-9 -10 0
-9 -11 0
-9 -12 0
-9 -13 0
-9 -14 0
-10 -11 0
-10 -12 0
-10 -13 0
-10 -14 0
-11 -12 0
-11 -13 0
-11 -14 0
-12 -13 0
-12 -14 0
-13 -14 0
5640 5641 5642 5643 5644 5645 5646 5647 5648 5649 5650 5651 5652 5653 5654 5655 5656 0
-5640 -5641 0
-5640 -5642 0
-5640 -5643 0
-5640 -5644 0
-5640 -5645 0
-5640 -5646 0
-5640 -5647 0
-5640 -5648 0
-5640 -5649 0
-5640 -5650 0
-5640 -5651 0
-5640 -5652 0
-5640 -5653 0
-5640 -5654 0
-5640 -5655 0
-5640 -5656 0
-5641 -5642 0
-5641 -5643 0
-5641 -5644 0
-5641 -5645 0
-5641 -5646 0
-5641 -5647 0
-5641 -5648 0
-5641 -5649 0
-5641 -5650 0
-5641 -5651 0
-5641 -5652 0
-5641 -5653 0
-5641 -5654 0
-5641 -5655 0
-5641 -5656 0
-5642 -5643 0
-5642 -5644 0
-5642 -5645 0
-5642 -5646 0
-5642 -5647 0
-5642 -5648 0
-5642 -5649 0
-5642 -5650 0
-5642 -5651 0
-5642 -5652 0
-5642 -5653 0
-5642 -5654 0
-5642 -5655 0
-5642 -5656 0
-5643 -5644 0
-5643 -5645 0
-5643 -5646 0
-5643 -5647 0
-5643 -5648 0
-5643 -5649 0
-5643 -5650 0
-5643 -5651 0
-5643 -5652 0
-5643 -5653 0
-5643 -5654 0
-5643 -5655 0
-5643 -5656 0
-5644 -5645 0
-5644 -5646 0
-5644 -5647 0
-5644 -5648 0
-5644 -5649 0
-5644 -5650 0
-5644 -5651 0
-5644 -5652 0
-5644 -5653 0
-5644 -5654 0
-5644 -5655 0
-5644 -5656 0
-5645 -5646 0
-5645 -5647 0
-5645 -5648 0
-5645 -5649 0
-5645 -5650 0
-5645 -5651 0
-5645 -5652 0
-5645 -5653 0
-5645 -5654 0
-5645 -5655 0
-5645 -5656 0
-5646 -5647 0
-5646 -5648 0
-5646 -5649 0
-5646 -5650 0
-5646 -5651 0
-5646 -5652 0
-5646 -5653 0
-5646 -5654 0
-5646 -5655 0
-5646 -5656 0
-5647 -5648 0
-5647 -5649 0
-5647 -5650 0
-5647 -5651 0
-5647 -5652 0
-5647 -5653 0
-5647 -5654 0
-5647 -5655 0
-5647 -5656 0
-5648 -5649 0
-5648 -5650 0
-5648 -5651 0
-5648 -5652 0
-5648 -5653 0
-5648 -5654 0
-5648 -5655 0
-5648 -5656 0
-5649 -5650 0
-5649 -5651 0
-5649 -5652 0
-5649 -5653 0
-5649 -5654 0
-5649 -5655 0
-5649 -5656 0
-5650 -5651 0
-5650 -5652 0
-5650 -5653 0
-5650 -5654 0
-5650 -5655 0
-5650 -5656 0
-5651 -5652 0
-5651 -5653 0
-5651 -5654 0
-5651 -5655 0
-5651 -5656 0
-5652 -5653 0
-5652 -5654 0
-5652 -5655 0
-5652 -5656 0
-5653 -5654 0
-5653 -5655 0
-5653 -5656 0
-5654 -5655 0
-5654 -5656 0
-5655 -5656 0
